
Gurobi 9.1.1 (win64) logging started Sat Mar 13 21:55:17 2021

Changed value of parameter LogFile to ../results/logs/log_samuel_kroger_2021_03_13_19_47_17.csv_2_3.log
   Prev:   Default: 
Gurobi Optimizer version 9.1.1 build v9.1.1rc0 (win64)
Thread count: 6 physical cores, 12 logical processors, using up to 12 threads
Optimize a model with 2778257 rows, 2882590 columns and 11704225 nonzeros
Model fingerprint: 0x3082ca0f
Variable types: 0 continuous, 2882590 integer (2882590 binary)
Coefficient statistics:
  Matrix range     [1e+00, 2e+00]
  Objective range  [1e+00, 1e+00]
  Bounds range     [1e+00, 1e+00]
  RHS range        [1e+00, 3e+00]
Found heuristic solution: objective 52170.000000
Found heuristic solution: objective 54544.000000
Found heuristic solution: objective 54845.000000
Presolve removed 2254 rows and 57217 columns (presolve time = 5s) ...
Presolve removed 2580 rows and 61207 columns (presolve time = 10s) ...
Presolve removed 5212 rows and 61893 columns (presolve time = 15s) ...
Presolve removed 5312 rows and 62344 columns (presolve time = 22s) ...
Presolve removed 5312 rows and 63610 columns (presolve time = 25s) ...
Presolve removed 6618 rows and 63744 columns (presolve time = 37s) ...
Presolve removed 6618 rows and 63744 columns
Presolve time: 39.46s
Presolved: 2771639 rows, 2818846 columns, 11614526 nonzeros
Found heuristic solution: objective 61656.000000
Variable types: 0 continuous, 2818846 integer (2818846 binary)

Deterministic concurrent LP optimizer: primal simplex, dual simplex, and barrier
Showing barrier log only...


Root simplex log...

Iteration    Objective       Primal Inf.    Dual Inf.      Time
       0    1.4412980e+06   0.000000e+00   0.000000e+00     55s
Concurrent spin time: 0.45s

Solved with dual simplex

Root relaxation: objective 1.441298e+06, 0 iterations, 11.14 seconds

    Nodes    |    Current Node    |     Objective Bounds      |     Work
 Expl Unexpl |  Obj  Depth IntInf | Incumbent    BestBd   Gap | It/Node Time

*    0     0               0    1441298.0000 1441298.00  0.00%     -   56s

Explored 0 nodes (0 simplex iterations) in 57.10 seconds
Thread count was 12 (of 12 available processors)

Solution count 5: 1.4413e+06 61656 54845 ... 52170

Optimal solution found (tolerance 1.00e-04)
Best objective 1.441298000000e+06, best bound 1.441298000000e+06, gap 0.0000%

Gurobi 9.1.1 (win64) logging started Sat Mar 13 21:58:03 2021

Changed value of parameter LogFile to ../results/logs/log_samuel_kroger_2021_03_13_19_47_17.csv_2_3.log
   Prev:   Default: 
Gurobi Optimizer version 9.1.1 build v9.1.1rc0 (win64)
Thread count: 6 physical cores, 12 logical processors, using up to 12 threads
Optimize a model with 2778257 rows, 2882590 columns and 11704225 nonzeros
Model fingerprint: 0x24503120
Variable types: 0 continuous, 2882590 integer (2882590 binary)
Coefficient statistics:
  Matrix range     [1e+00, 2e+00]
  Objective range  [1e+00, 1e+00]
  Bounds range     [1e+00, 1e+00]
  RHS range        [1e+00, 3e+00]

User MIP start produced solution with objective 1.4413e+06 (24.80s)
Loaded user MIP start with objective 1.4413e+06
Processed MIP start in 25.13 seconds

Presolve removed 2254 rows and 56943 columns (presolve time = 5s) ...
Presolve removed 2580 rows and 61207 columns (presolve time = 10s) ...
Presolve removed 5212 rows and 61893 columns (presolve time = 15s) ...
Presolve removed 5312 rows and 62344 columns (presolve time = 22s) ...
Presolve removed 5312 rows and 63610 columns (presolve time = 25s) ...
Presolve removed 6618 rows and 63744 columns (presolve time = 37s) ...
Presolve removed 6618 rows and 63744 columns
Presolve time: 39.42s
Presolved: 2771639 rows, 2818846 columns, 11614526 nonzeros
Variable types: 0 continuous, 2818846 integer (2818846 binary)

Explored 0 nodes (0 simplex iterations) in 67.47 seconds
Thread count was 12 (of 12 available processors)

Solution count 1: 1.4413e+06 

Optimal solution found (tolerance 1.00e-04)
Best objective 1.441298000000e+06, best bound 1.441298000000e+06, gap 0.0000%

Gurobi 9.1.1 (win64) logging started Sat Mar 13 22:02:33 2021

Changed value of parameter LogFile to ../results/logs/log_samuel_kroger_2021_03_13_19_47_17.csv_2_3.log
   Prev:   Default: 
Gurobi Optimizer version 9.1.1 build v9.1.1rc0 (win64)
Thread count: 6 physical cores, 12 logical processors, using up to 12 threads
Optimize a model with 2778257 rows, 2882590 columns and 11704225 nonzeros
Model fingerprint: 0x3082ca0f
Variable types: 0 continuous, 2882590 integer (2882590 binary)
Coefficient statistics:
  Matrix range     [1e+00, 2e+00]
  Objective range  [1e+00, 1e+00]
  Bounds range     [1e+00, 1e+00]
  RHS range        [1e+00, 3e+00]
Found heuristic solution: objective 52170.000000
Found heuristic solution: objective 54544.000000
Found heuristic solution: objective 54845.000000
Presolve removed 2254 rows and 57392 columns (presolve time = 5s) ...
Presolve removed 2580 rows and 61207 columns (presolve time = 10s) ...
Presolve removed 5212 rows and 61893 columns (presolve time = 15s) ...
Presolve removed 5312 rows and 62344 columns (presolve time = 22s) ...
Presolve removed 5312 rows and 63610 columns (presolve time = 25s) ...
Presolve removed 6618 rows and 63744 columns (presolve time = 37s) ...
Presolve removed 6618 rows and 63744 columns
Presolve time: 39.43s
Presolved: 2771639 rows, 2818846 columns, 11614526 nonzeros
Found heuristic solution: objective 61656.000000
Variable types: 0 continuous, 2818846 integer (2818846 binary)

Deterministic concurrent LP optimizer: primal simplex, dual simplex, and barrier
Showing barrier log only...


Root simplex log...

Iteration    Objective       Primal Inf.    Dual Inf.      Time
       0    1.4412980e+06   0.000000e+00   0.000000e+00     55s
Concurrent spin time: 0.60s

Solved with dual simplex

Root relaxation: objective 1.441298e+06, 0 iterations, 10.64 seconds

    Nodes    |    Current Node    |     Objective Bounds      |     Work
 Expl Unexpl |  Obj  Depth IntInf | Incumbent    BestBd   Gap | It/Node Time

*    0     0               0    1441298.0000 1441298.00  0.00%     -   55s

Explored 0 nodes (0 simplex iterations) in 56.62 seconds
Thread count was 12 (of 12 available processors)

Solution count 5: 1.4413e+06 61656 54845 ... 52170

Optimal solution found (tolerance 1.00e-04)
Best objective 1.441298000000e+06, best bound 1.441298000000e+06, gap 0.0000%

Gurobi 9.1.1 (win64) logging started Sat Mar 13 22:05:18 2021

Changed value of parameter LogFile to ../results/logs/log_samuel_kroger_2021_03_13_19_47_17.csv_2_3.log
   Prev:   Default: 
Gurobi Optimizer version 9.1.1 build v9.1.1rc0 (win64)
Thread count: 6 physical cores, 12 logical processors, using up to 12 threads
Optimize a model with 2778257 rows, 2882590 columns and 11704225 nonzeros
Model fingerprint: 0x24503120
Variable types: 0 continuous, 2882590 integer (2882590 binary)
Coefficient statistics:
  Matrix range     [1e+00, 2e+00]
  Objective range  [1e+00, 1e+00]
  Bounds range     [1e+00, 1e+00]
  RHS range        [1e+00, 3e+00]

User MIP start produced solution with objective 1.4413e+06 (24.53s)
Loaded user MIP start with objective 1.4413e+06
Processed MIP start in 24.87 seconds

Presolve removed 2254 rows and 56976 columns (presolve time = 5s) ...
Presolve removed 2580 rows and 61207 columns (presolve time = 10s) ...
Presolve removed 5212 rows and 61893 columns (presolve time = 15s) ...
Presolve removed 5312 rows and 62344 columns (presolve time = 22s) ...
Presolve removed 5312 rows and 63610 columns (presolve time = 25s) ...
Presolve removed 6618 rows and 63744 columns (presolve time = 37s) ...
Presolve removed 6618 rows and 63744 columns
Presolve time: 39.39s
Presolved: 2771639 rows, 2818846 columns, 11614526 nonzeros
Variable types: 0 continuous, 2818846 integer (2818846 binary)

Explored 0 nodes (0 simplex iterations) in 67.19 seconds
Thread count was 12 (of 12 available processors)

Solution count 1: 1.4413e+06 

Optimal solution found (tolerance 1.00e-04)
Best objective 1.441298000000e+06, best bound 1.441298000000e+06, gap 0.0000%

Gurobi 9.1.1 (win64) logging started Sat Mar 13 22:08:47 2021

Changed value of parameter LogFile to ../results/logs/log_samuel_kroger_2021_03_13_19_47_17.csv_2_3.log
   Prev:   Default: 
Gurobi Optimizer version 9.1.1 build v9.1.1rc0 (win64)
Thread count: 6 physical cores, 12 logical processors, using up to 12 threads
Optimize a model with 1539363 rows, 2882590 columns and 4987217 nonzeros
Model fingerprint: 0x71f4e16c
Variable types: 0 continuous, 2882590 integer (2882590 binary)
Coefficient statistics:
  Matrix range     [1e+00, 2e+00]
  Objective range  [1e+00, 1e+00]
  Bounds range     [1e+00, 1e+00]
  RHS range        [1e+00, 3e+00]
Found heuristic solution: objective 1291592.0000
Found heuristic solution: objective 1301310.0000
Found heuristic solution: objective 1301775.0000
Presolve removed 1260288 rows and 2579431 columns (presolve time = 5s) ...
Presolve removed 1265829 rows and 2585108 columns (presolve time = 10s) ...
Presolve removed 1265829 rows and 2585108 columns
Presolve time: 10.01s
Presolved: 273534 rows, 297482 columns, 1061729 nonzeros
Found heuristic solution: objective 1314379.0000
Variable types: 0 continuous, 297482 integer (297482 binary)

Deterministic concurrent LP optimizer: primal and dual simplex
Showing first log only...


Root simplex log...

Iteration    Objective       Primal Inf.    Dual Inf.      Time
       0    1.4412980e+06   0.000000e+00   0.000000e+00     12s
Concurrent spin time: 0.00s

Solved with primal simplex

Root relaxation: objective 1.441298e+06, 0 iterations, 0.59 seconds

    Nodes    |    Current Node    |     Objective Bounds      |     Work
 Expl Unexpl |  Obj  Depth IntInf | Incumbent    BestBd   Gap | It/Node Time

*    0     0               0    1441298.0000 1441298.00  0.00%     -   12s

Explored 0 nodes (0 simplex iterations) in 12.61 seconds
Thread count was 12 (of 12 available processors)

Solution count 5: 1.4413e+06 1.31438e+06 1.30178e+06 ... 1.29159e+06

Optimal solution found (tolerance 1.00e-04)
Best objective 1.441298000000e+06, best bound 1.441298000000e+06, gap 0.0000%
